30 15 3
6 1 1 1 2 4 2 3 3 1 5 3 2 6 9 7 6 1 9 2 1 12 5 
7 2 1 4 2 1 1 4 4 1 5 1 2 8 8 6 6 1 10 1 1 11 5 2 14 1 15 1 
7 1 2 4 2 4 5 3 1 1 5 3 2 7 9 6 9 2 9 3 10 4 2 12 5 11 1 1 15 5 
6 1 1 2 2 4 5 3 4 1 5 5 3 8 10 6 10 7 9 1 10 5 2 12 4 11 4 
7 2 1 5 2 3 1 3 2 1 5 4 2 8 7 7 9 2 9 3 10 5 1 11 1 3 14 5 15 3 13 5 
5 1 2 3 2 4 3 3 4 3 8 9 7 6 6 10 2 9 3 10 2 2 11 1 12 5 
7 2 1 5 2 3 2 4 1 3 4 1 5 5 3 8 7 6 10 7 9 1 10 2 1 12 1 2 14 5 13 3 
6 2 1 2 2 3 1 4 4 1 5 4 1 8 6 2 9 1 10 4 2 12 3 11 1 
5 2 1 4 2 1 1 4 5 1 7 6 1 10 1 2 12 3 11 4 
5 2 2 5 1 3 2 3 1 4 2 3 8 8 6 10 7 6 2 9 5 10 5 2 11 2 12 4 
7 1 1 2 1 4 2 1 5 2 2 7 9 6 9 2 9 2 10 5 1 12 1 1 14 3 
7 2 1 1 2 2 2 4 2 3 3 1 5 5 2 6 9 7 6 1 10 5 2 11 4 12 4 1 14 4 
7 1 1 2 2 3 1 4 4 1 5 1 3 6 7 8 6 7 7 1 9 3 2 12 4 11 5 2 15 1 13 3 
7 1 2 1 2 3 4 4 2 1 5 5 2 7 10 8 6 1 10 2 2 11 2 12 1 3 15 5 14 4 13 3 
7 2 2 4 1 1 1 3 2 1 5 2 1 7 7 1 10 4 2 12 4 11 1 3 15 5 13 5 14 3 
5 1 1 5 1 3 4 1 6 10 2 9 2 10 3 1 11 3 
7 2 1 1 2 5 1 3 4 1 5 4 3 8 7 6 10 7 6 2 9 1 10 1 1 12 5 1 14 2 
7 2 2 5 1 5 2 4 2 3 5 1 5 1 3 7 8 8 6 6 10 1 10 5 2 12 3 11 4 1 13 3 
7 1 1 2 1 3 3 1 5 4 1 6 7 2 10 5 9 4 2 11 3 12 2 3 13 2 14 1 15 2 
5 1 1 3 1 4 2 1 7 8 2 9 2 10 4 1 12 2 
6 1 1 1 2 3 2 4 3 1 5 3 3 7 9 6 9 8 8 2 10 2 9 5 2 11 5 12 1 
5 1 2 2 1 4 3 3 8 9 6 6 7 10 1 10 3 1 12 4 
7 2 2 2 1 4 1 3 5 1 5 4 1 8 6 2 10 3 9 3 1 12 4 1 13 5 
5 2 1 2 2 3 2 4 5 3 4 2 8 8 6 7 2 9 5 10 2 2 12 1 11 2 
5 1 1 4 1 3 5 1 7 7 2 9 3 10 2 2 11 1 12 5 
6 1 1 3 1 4 2 1 5 2 1 7 9 2 9 5 10 5 2 12 1 11 3 
7 1 1 4 2 4 4 3 1 1 5 5 1 6 7 2 9 2 10 1 2 11 4 12 3 2 14 5 13 1 
7 2 1 5 2 4 1 3 4 1 5 1 3 7 6 8 8 6 6 2 9 2 10 1 2 12 4 11 5 2 15 5 14 5 
6 1 2 1 2 4 3 3 1 1 5 4 3 7 8 6 10 8 9 1 10 4 2 12 1 11 1 
5 1 1 4 1 4 3 2 6 6 7 7 1 10 4 1 11 5 
